letting n_hints be 28

letting grid be [
[ 1, 1, 2, 3, 4, 4, 4, 4, 5],
[ 1, 1, 2, 3, 6, 6, 6, 5, 5],
[ 7, 8, 2, 3, 9, 9,10,10,10],

[ 7, 8,11,11,12,12,13,14,14],
[15,16,16,11,17,18,13,13,14],
[15,15,16,17,17,18,18,19,20],

[21,21,21,22,22,23,24,19,20],
[25,25,26,26,26,23,24,27,27],
[25,28,28,28,28,23,24,27,27]
]

letting hints be [24,8,18,14,21,13,10,15,12,12,18,9,19,13,10,15,17,18,7,12,14,5,21,12,13,7,18,30]